334 5
10 10 10 10 10 

0 0 0 0 0 0 4 2 14 26 38 
0 0 0 0 0 0 4 3 7 9 10 
2 0 0 0 1 0 2 6 4 
4 0 0 0 4 0 1 5 
6 0 0 0 7 0 2 12 8 
1 0 0 0 7 0 2 12 11 
5 0 0 0 5 0 1 8 
3 0 0 0 7 0 1 11 
6 0 0 0 5 0 1 12 
10 0 0 0 3 0 1 11 
8 0 0 0 5 0 1 13 
5 0 0 0 6 0 1 13 
0 0 0 0 0 0 1 50 
0 0 0 0 0 0 1 15 
2 0 0 0 2 0 2 19 16 
8 0 0 0 2 0 2 18 17 
4 0 0 0 8 0 3 23 21 20 
4 0 0 0 7 0 3 24 23 22 
1 0 0 0 3 0 2 23 22 
7 0 0 0 10 0 1 22 
1 0 0 0 5 0 1 22 
9 0 0 0 5 0 1 25 
10 0 0 0 5 0 1 25 
8 0 0 0 3 0 1 25 
0 0 0 0 0 0 1 50 
0 0 0 0 0 0 4 27 28 29 31 
1 1 0 0 0 0 1 30 
10 3 0 0 0 0 1 30 
8 4 0 0 0 0 1 30 
1 2 0 0 0 0 1 32 
2 3 0 0 0 0 1 32 
10 10 0 0 0 0 3 36 35 33 
5 5 0 0 0 0 1 34 
6 9 0 0 0 0 1 37 
2 7 0 0 0 0 1 37 
1 6 0 0 0 0 1 37 
0 0 0 0 0 0 1 50 
0 0 0 0 0 0 1 39 
1 0 0 1 0 0 4 45 44 42 40 
3 0 0 7 0 0 1 41 
6 0 0 7 0 0 1 43 
6 0 0 6 0 0 1 43 
1 0 0 5 0 0 3 48 47 46 
9 0 0 4 0 0 3 48 47 46 
7 0 0 3 0 0 1 46 
10 0 0 6 0 0 1 49 
6 0 0 8 0 0 1 49 
1 0 0 3 0 0 1 49 
0 0 0 0 0 0 1 50 
0 0 0 0 0 0 4 51 63 75 87 
0 0 0 0 0 0 2 52 54 
9 0 0 0 1 0 3 59 55 53 
9 0 0 0 6 0 2 58 57 
1 0 0 0 3 0 2 58 57 
7 0 0 0 6 0 1 56 
6 0 0 0 5 0 2 60 58 
6 0 0 0 5 0 2 61 60 
2 0 0 0 5 0 1 61 
5 0 0 0 6 0 1 60 
3 0 0 0 8 0 1 62 
8 0 0 0 5 0 1 62 
0 0 0 0 0 0 1 99 
0 0 0 0 0 0 4 64 66 68 71 
8 0 0 1 0 0 1 65 
2 0 0 5 0 0 2 69 67 
1 0 0 5 0 0 2 73 69 
2 0 0 5 0 0 2 73 72 
10 0 0 6 0 0 2 73 72 
2 0 0 6 0 0 1 70 
10 0 0 6 0 0 1 72 
1 0 0 4 0 0 1 72 
6 0 0 4 0 0 1 74 
4 0 0 8 0 0 1 74 
0 0 0 0 0 0 1 99 
0 0 0 0 0 0 3 76 77 79 
7 0 0 0 0 1 3 85 82 80 
8 0 0 0 0 6 2 82 78 
4 0 0 0 0 2 1 80 
6 0 0 0 0 4 2 85 83 
4 0 0 0 0 6 1 81 
2 0 0 0 0 6 1 83 
7 0 0 0 0 6 1 84 
5 0 0 0 0 10 1 86 
8 0 0 0 0 3 1 86 
1 0 0 0 0 6 1 86 
0 0 0 0 0 0 1 99 
0 0 0 0 0 0 5 88 91 92 93 96 
2 1 0 0 0 0 2 95 89 
2 6 0 0 0 0 1 90 
6 5 0 0 0 0 1 94 
1 8 0 0 0 0 1 95 
3 3 0 0 0 0 1 95 
1 7 0 0 0 0 1 94 
8 2 0 0 0 0 1 97 
3 9 0 0 0 0 1 97 
8 5 0 0 0 0 1 97 
3 4 0 0 0 0 1 98 
0 0 0 0 0 0 1 99 
0 0 0 0 0 0 4 100 132 144 176 
0 0 0 0 0 0 3 101 102 130 
9 0 1 0 1 1 2 129 103 
3 0 4 0 5 7 3 129 110 104 
9 0 6 0 6 5 2 110 104 
5 0 6 0 4 2 2 113 105 
5 0 7 0 3 7 3 128 127 106 
6 0 5 0 7 4 1 107 
3 0 9 0 5 5 2 117 108 
4 0 5 0 7 2 2 125 109 
3 0 6 0 5 5 2 126 111 
9 0 3 0 7 3 3 125 124 113 
6 0 4 0 3 4 1 112 
8 0 6 0 5 4 2 124 114 
2 0 4 0 6 7 1 114 
9 0 6 0 4 5 1 115 
10 0 5 0 4 4 3 123 119 116 
4 0 3 0 7 5 3 121 120 118 
2 0 3 0 2 7 2 123 121 
4 0 7 0 4 5 1 122 
6 0 8 0 4 4 1 120 
1 0 6 0 4 5 1 131 
5 0 6 0 4 7 1 131 
7 0 5 0 5 5 1 131 
6 0 5 0 5 2 1 131 
4 0 4 0 8 6 1 131 
4 0 3 0 5 6 1 131 
4 0 6 0 5 9 1 131 
4 0 3 0 4 5 1 131 
4 0 3 0 8 7 1 131 
7 0 7 0 7 6 1 131 
5 0 4 0 6 6 1 131 
0 0 0 0 0 0 1 334 
0 0 0 0 0 0 3 133 136 137 
1 0 1 0 0 0 1 134 
7 0 9 0 0 0 1 135 
10 0 7 0 0 0 3 140 139 138 
6 0 5 0 0 0 3 140 139 138 
6 0 6 0 0 0 2 140 138 
8 0 1 0 0 0 2 142 141 
1 0 9 0 0 0 2 142 141 
3 0 3 0 0 0 1 141 
9 0 4 0 0 0 1 143 
8 0 5 0 0 0 1 143 
0 0 0 0 0 0 4 208 230 252 264 
0 0 0 0 0 0 6 145 170 171 172 173 174 
5 2 0 1 1 0 3 169 168 146 
10 2 0 8 5 0 2 167 147 
2 5 0 4 7 0 2 166 148 
5 5 0 6 4 0 2 165 149 
1 4 0 4 4 0 1 150 
3 5 0 4 5 0 2 164 151 
4 6 0 4 5 0 3 163 162 152 
5 4 0 4 6 0 1 153 
7 2 0 4 5 0 1 154 
8 7 0 5 6 0 2 161 155 
5 10 0 3 5 0 2 160 156 
8 5 0 9 6 0 1 157 
3 8 0 6 3 0 1 158 
2 4 0 6 2 0 1 159 
1 3 0 6 9 0 1 175 
9 10 0 10 6 0 1 175 
1 9 0 3 6 0 1 175 
3 4 0 2 5 0 1 175 
7 6 0 3 5 0 1 175 
5 7 0 6 5 0 1 175 
1 1 0 9 6 0 1 175 
2 1 0 2 7 0 1 175 
8 2 0 3 5 0 1 175 
5 4 0 9 7 0 1 175 
6 3 0 6 5 0 1 175 
8 6 0 7 3 0 1 175 
9 6 0 4 6 0 1 175 
4 4 0 5 5 0 1 175 
10 8 0 4 2 0 1 175 
5 7 0 3 4 0 1 175 
0 0 0 0 0 0 1 334 
0 0 0 0 0 0 3 177 178 183 
3 0 0 2 1 1 2 188 179 
6 0 0 4 3 4 2 188 179 
9 0 0 4 8 3 2 184 180 
10 0 0 5 6 7 2 185 181 
4 0 0 4 5 2 1 182 
8 0 0 4 2 3 3 192 189 186 
5 0 0 6 10 9 2 188 185 
5 0 0 7 5 10 1 185 
10 0 0 5 9 4 2 192 187 
6 0 0 3 5 5 1 187 
2 0 0 4 5 8 3 196 194 190 
2 0 0 7 3 5 2 192 190 
3 0 0 6 8 2 2 196 191 
7 0 0 6 6 5 1 191 
9 0 0 5 2 5 2 199 193 
8 0 0 4 6 7 2 196 193 
9 0 0 10 5 2 1 195 
7 0 0 2 6 3 1 195 
6 0 0 1 5 5 1 197 
5 0 0 6 4 4 1 197 
7 0 0 4 2 2 2 201 198 
7 0 0 5 4 5 5 206 205 204 202 200 
8 0 0 10 8 7 2 202 200 
8 0 0 8 3 5 1 203 
6 0 0 4 4 8 1 202 
6 0 0 2 7 9 1 207 
2 0 0 3 7 4 1 207 
5 0 0 6 6 4 1 207 
5 0 0 5 3 7 1 207 
10 0 0 8 2 5 1 207 
0 0 0 0 0 0 1 334 
0 0 0 0 0 0 4 209 226 227 228 
7 0 1 0 0 1 2 225 210 
8 0 2 0 0 4 2 224 211 
4 0 5 0 0 9 2 223 212 
1 0 7 0 0 5 2 222 213 
9 0 4 0 0 7 2 221 214 
8 0 5 0 0 6 2 220 215 
10 0 6 0 0 3 2 219 216 
9 0 2 0 0 7 1 217 
5 0 7 0 0 7 1 218 
6 0 3 0 0 4 1 229 
2 0 3 0 0 4 1 229 
9 0 5 0 0 2 1 229 
1 0 2 0 0 3 1 229 
6 0 9 0 0 3 1 229 
6 0 6 0 0 9 1 229 
7 0 7 0 0 4 1 229 
4 0 6 0 0 10 1 229 
1 0 8 0 0 2 1 229 
3 0 4 0 0 4 1 229 
6 0 8 0 0 6 1 229 
0 0 0 0 0 0 1 334 
0 0 0 0 0 0 2 231 232 
3 2 0 1 0 0 2 237 233 
9 7 0 8 0 0 3 245 236 235 
7 5 0 8 0 0 1 234 
5 7 0 5 0 0 3 245 240 236 
1 4 0 6 0 0 3 240 238 237 
5 2 0 5 0 0 1 238 
7 5 0 3 0 0 3 248 242 241 
10 3 0 7 0 0 1 239 
3 4 0 3 0 0 3 248 247 241 
4 7 0 6 0 0 3 248 247 241 
5 4 0 3 0 0 2 244 243 
4 9 0 4 0 0 2 247 246 
1 6 0 5 0 0 1 246 
7 10 0 3 0 0 1 246 
4 5 0 5 0 0 1 247 
2 3 0 5 0 0 1 249 
10 2 0 10 0 0 1 249 
4 7 0 5 0 0 1 250 
2 5 0 3 0 0 1 251 
10 3 0 5 0 0 1 251 
0 0 0 0 0 0 1 334 
0 0 0 0 0 0 4 253 258 259 262 
6 0 0 1 0 0 1 254 
1 0 0 8 0 0 2 257 255 
9 0 0 7 0 0 1 256 
8 0 0 5 0 0 1 260 
8 0 0 5 0 0 1 261 
5 0 0 4 0 0 1 261 
10 0 0 7 0 0 1 260 
6 0 0 3 0 0 1 263 
6 0 0 5 0 0 1 263 
9 0 0 5 0 0 1 263 
0 0 0 0 0 0 4 286 298 310 322 
0 0 0 0 0 0 1 265 
4 0 1 0 0 1 2 271 266 
1 0 5 0 0 6 1 267 
2 0 2 0 0 7 3 284 282 268 
8 0 6 0 0 3 3 283 281 269 
8 0 4 0 0 4 2 278 270 
10 0 3 0 0 5 3 280 279 272 
1 0 4 0 0 2 5 282 281 278 276 273 
9 0 6 0 0 6 3 277 276 273 
9 0 8 0 0 6 1 274 
10 0 2 0 0 1 1 275 
8 0 2 0 0 6 1 285 
6 0 9 0 0 3 1 285 
2 0 7 0 0 4 1 285 
4 0 6 0 0 5 1 285 
10 0 8 0 0 7 1 285 
4 0 4 0 0 4 1 285 
10 0 5 0 0 7 1 285 
7 0 6 0 0 9 1 285 
2 0 4 0 0 6 1 285 
6 0 8 0 0 8 1 285 
0 0 0 0 0 0 1 334 
0 0 0 0 0 0 1 287 
7 0 0 0 2 0 2 292 288 
1 0 0 0 5 0 2 290 289 
1 0 0 0 6 0 3 296 293 291 
9 0 0 0 7 0 3 295 294 293 
5 0 0 0 10 0 1 294 
6 0 0 0 6 0 1 293 
7 0 0 0 4 0 1 297 
4 0 0 0 4 0 1 297 
5 0 0 0 2 0 1 297 
5 0 0 0 4 0 1 297 
0 0 0 0 0 0 1 334 
0 0 0 0 0 0 3 299 301 302 
2 2 0 0 0 0 1 300 
10 3 0 0 0 0 3 306 304 303 
7 8 0 0 0 0 1 303 
10 5 0 0 0 0 1 303 
3 5 0 0 0 0 2 308 307 
10 4 0 0 0 0 1 305 
3 10 0 0 0 0 1 307 
2 4 0 0 0 0 1 307 
5 6 0 0 0 0 1 309 
6 3 0 0 0 0 1 309 
0 0 0 0 0 0 1 334 
0 0 0 0 0 0 4 311 313 314 317 
2 0 1 0 0 0 2 320 312 
9 0 6 0 0 0 2 319 315 
9 0 4 0 0 0 2 319 315 
3 0 6 0 0 0 1 315 
1 0 5 0 0 0 1 316 
7 0 6 0 0 0 1 318 
10 0 7 0 0 0 1 320 
4 0 6 0 0 0 1 321 
4 0 4 0 0 0 1 321 
1 0 5 0 0 0 1 321 
0 0 0 0 0 0 1 334 
0 0 0 0 0 0 2 323 324 
10 0 0 1 0 0 1 325 
8 0 0 3 0 0 1 325 
4 0 0 6 0 0 2 328 326 
3 0 0 9 0 0 2 332 327 
5 0 0 1 0 0 3 331 330 329 
2 0 0 5 0 0 3 331 330 329 
1 0 0 6 0 0 1 333 
3 0 0 3 0 0 1 333 
1 0 0 8 0 0 1 333 
3 0 0 8 0 0 1 333 
0 0 0 0 0 0 1 334 
0 0 0 0 0 0 0 
